92 59 2 28 34 35 89 
12 98 38 5 95 60 
45 44 87 31 93 
14 16 61 99 84 25 
43 15 22 46 47 
65 9 10 70 
63 64 81 80 
72 21 19 58 
83 82 7 88 6 26 75 97 
37 86 66 32 48 
18 27 69 40 57 74 52 
94 96 62 73 13 100 
54 39 23 67 24 4 3 
42 91 85 41 56 29 50 
1 20 90 49 71 51 
36 11 8 17 
33 76 78 55 77 
30 79 68 
53 

